%chk=add_ts_pr_b.chk
%nprocshared=20
%mem=46GB
#p opt=modredundant PBE1PBE/DEF2SVP empiricaldispersion=gd3bj scrf=(SMD, solvent=Benzene) freq=noraman

TS

0 1
N     0.493940000000     -2.884078000000      0.700527000000
C     1.403344000000     -2.408806000000      1.732486000000
C     1.200946000000     -2.993080000000     -0.566723000000
H     0.870506000000     -2.381174000000      2.697738000000
H     2.236696000000     -3.123353000000      1.836707000000
C     1.944073000000     -1.010069000000      1.398179000000
H     0.515692000000     -3.403838000000     -1.327006000000
H     2.035005000000     -3.705202000000     -0.455358000000
C     1.732381000000     -1.627481000000     -1.040936000000
C     0.737116000000     -0.088506000000      1.196610000000
C     2.701682000000     -1.100681000000      0.046364000000
C     0.519758000000     -0.688010000000     -1.125041000000
H     0.157356000000      0.017522000000      2.126218000000
H     1.056638000000      0.916363000000      0.884061000000
N    -0.163914000000     -0.621509000000      0.170130000000
H     3.503306000000     -1.849420000000      0.154420000000
H    -0.199809000000     -1.054900000000     -1.871409000000
H     0.793542000000      0.337285000000     -1.418341000000
N     3.309619000000      0.144703000000     -0.341550000000
H     2.725291000000      0.804378000000     -0.837067000000
C     2.829422000000     -0.486975000000      2.514263000000
H     3.239390000000      0.501957000000      2.261297000000
H     2.257693000000     -0.392900000000      3.450779000000
H     3.672820000000     -1.169568000000      2.701181000000
C     2.413441000000     -1.756846000000     -2.391982000000
H     2.772946000000     -0.784173000000     -2.758145000000
H     3.279888000000     -2.433396000000     -2.325943000000
H     1.717102000000     -2.166231000000     -3.140224000000
C    -0.612775000000     -1.974626000000      0.562713000000
H    -1.154283000000     -1.872503000000      1.513756000000
H    -1.310565000000     -2.332634000000     -0.207312000000
C    -1.708676000000      0.519186000000      0.154514000000
O    -2.449533956425      0.096361119604     -0.713685595601
O    -1.323955998107      1.890719474223     -0.039102197349
C    -0.177504061574      2.157528521529     -0.690665747317
O     0.786899909728      1.441627230087     -0.592890951610
O    -1.935310171328      0.467755091462      1.487712310909
O    -0.261034633525      3.296144767161     -1.343223133029
C     0.798731811421      3.758853232198     -2.238543942642
C     0.212744928972      5.032286137302     -2.825421746265
H    -0.710936397597      4.813467264231     -3.380491359618
H    -0.020795843967      5.752173538606     -2.027517590809
H     0.933943268491      5.494860946325     -3.513679028636
C     1.033702317489      2.719519590909     -3.324818647898
H     1.466798491293      1.799838838688     -2.911669407628
H     0.084821833699      2.473813860706     -3.823329382523
H     1.726707220790      3.126139827041     -4.075218712624
C     2.054862485979      4.058087102636     -1.434238737363
H     1.834013260515      4.780712277843     -0.634547199815
H     2.464669442003      3.143940583225     -0.987167232674
H     2.815050272052      4.499263545366     -2.095067458681
C    -3.288432105554      0.381980183613      2.013172820229
C    -4.123015169646      1.536841865906      1.474792413468
H    -3.642059646093      2.498239580160      1.707662233693
H    -4.239561020502      1.463067273905      0.386082684266
H    -5.119766702925      1.525057832610      1.939641466963
C    -3.918723987188     -0.966107151009      1.686884458150
H    -4.021252548489     -1.095217126777      0.602817070164
H    -3.306213552739     -1.787506113833      2.086681782461
H    -4.914122966128     -1.027591511659      2.151387569976
C    -3.078741307448      0.521037204057      3.512924386984
H    -2.433366963695     -0.288080755824      3.886508270697
H    -2.602384247311      1.484068467496      3.747748785491
H    -4.042923929733      0.468517877057      4.038606261913
C     4.715112179022      0.443803967623     -0.031666901250
H     4.938420393665      0.117325336272      0.994327930044
H     5.366509191049     -0.153214714990     -0.686167378434
C     5.077035188438      1.933375643867     -0.179274342075
C     5.540771085577      2.446466178504     -1.402392689207
C     4.952899906547      2.817984190379      0.905340576385
C     5.868426158956      3.794625801803     -1.536302090001
C     5.280396999251      4.166243653011      0.772051340812
C     5.739779272598      4.661040894979     -0.449569282268
H     5.644528215847      1.781267391332     -2.253984983960
H     4.596545109757      2.443563169628      1.859952834344
H     6.224968593672      4.168792115944     -2.491751794782
H     5.176394887443      4.831461136877      1.624504469526
H     5.995005579647      5.711479436109     -0.553661315751

B 15 32 F
