%chk=bisp_w.chk
%nprocshared=20
%mem=20Gb
#p opt PBE1PBE/DEF2SVP empiricaldispersion=gd3bj scrf=(SMD, solvent=Water) freq=noraman pop=saveNBOs

Vatsadze, way 1

0, 1
N         3.17317707967618    0.58605781255338   -0.69863738274893
C         2.20818670549284    1.64734442905327   -0.46877375863413
C         2.56719924009198   -0.46438607988864   -1.50062965111620
H         2.70680990689501    2.44286147158856    0.09340416543077
H         1.90291742078573    2.05387733998743   -1.43786016226847
C         0.98083500855200    1.13728864066638    0.31320204797016
H         3.32726853311034   -1.22716095886295   -1.69256336746645
H         2.26318736849812   -0.03520088729285   -2.46023333023648
C         1.35990865366097   -1.08836163410371   -0.77901540117228
C         1.51637422953881    0.51772667545974    1.61717601032290
C         0.31497659895570    0.03202986710877   -0.54430486604455
C         1.86344893899163   -1.59678255700418    0.58268491413180
H         2.00312369212019    1.28904297120473    2.22207435458676
H         0.70719446586353    0.08629460164256    2.21463510104674
N         2.48932656596631   -0.52707497692806    1.34608025308554
H         0.06547088181986    0.46338814588519   -1.52443792407131
H         2.60688862791698   -2.38584301320024    0.43673677560201
H         1.03705791723561   -2.00914194244248    1.16601596250112
N        -0.90640563656894   -0.53827604480766   -0.01264315713109
H        -0.90151732315800   -0.57399251458773    0.99867188284538
C         0.02864776464952    2.29055343602697    0.61241510337409
H        -0.79081748250370    1.96407610676169    1.24952140673791
H         0.55809565343338    3.08845512569254    1.13066014424018
H        -0.38376226703444    2.69535637353075   -0.31024506020672
C         0.75868918371107   -2.22338208700941   -1.59816429901985
H        -0.11836311528828   -2.61457781905463   -1.08993777736638
H         0.46163382722070   -1.86345296215720   -2.58129071676891
H         1.48337278359941   -3.02446742419406   -1.72692732896976
C         3.59099829006253    0.03103014492942    0.57942714086229
H         4.06289536749304    0.82302657461136    1.16761634061155
H         4.32546850054162   -0.75742210058276    0.39516462673830
C        -2.17165644041430   -0.02239557694328   -0.50089472673067
H        -2.44679115749579    0.95767875079384   -0.07616930650845
H        -2.08561394844205    0.09234594910640   -1.58539548223907
C        -3.24942795952181   -1.02743717100530   -0.18864138276286
C        -3.36467583396367   -2.18044789647254   -0.95483387083509
C        -4.10977209455565   -0.84580061027357    0.88476713906403
C        -4.32705632230530   -3.12816159352758   -0.65967308374084
C        -5.07470804562272   -1.79306176026139    1.18219800857582
C        -5.18602085834430   -2.93557501019444    0.40967178111076
H        -2.69365849977261   -2.32897122294382   -1.78783608879068
H        -4.02980818080294    0.04684970069804    1.49021283588367
H        -4.41044936161007   -4.01842403948215   -1.26605569449245
H        -5.74119834544502   -1.63804224919972    2.01834499567377
H        -5.94037883314797   -3.67376269412361    0.63928041823128

