%chk=boc_b.chk
%nprocshared=10
%mem=20Gb
#p opt  PBE1PBE/DEF2SVP empiricaldispersion=gd3bj scrf=(SMD, solvent=Benzene) freq=noraman

Vatsadze, way 2 prod 2 part

0, 1
C    -1.708676000000      0.519186000000      0.154514000000
O    -2.224648000000      0.427833000000      1.253081000000
O    -2.313681000000     -0.146875000000     -0.966616000000
C    -3.509433000000     -0.740813000000     -0.800818000000
O    -3.666634000000     -1.916445000000     -1.013719000000
O    -1.074488000000      1.608511000000     -0.338033000000
O    -4.428938000000      0.137688000000     -0.466151000000
C    -5.787714000000     -0.260112000000     -0.099700000000
C    -6.429341000000      1.058344000000      0.299582000000
H    -5.899889000000      1.503371000000      1.154452000000
H    -6.400916000000      1.769903000000     -0.538455000000
H    -7.478236000000      0.894442000000      0.583758000000
C    -5.733946000000     -1.216695000000      1.082449000000
H    -5.281489000000     -2.175861000000      0.800739000000
H    -5.148007000000     -0.772937000000      1.900381000000
H    -6.754145000000     -1.404681000000      1.446525000000
C    -6.488780000000     -0.862684000000     -1.307891000000
H    -6.469821000000     -0.157604000000     -2.152267000000
H    -6.010521000000     -1.801109000000     -1.614657000000
H    -7.539261000000     -1.067878000000     -1.055697000000
C    -1.380613000000      2.940223000000      0.159195000000
C    -2.873853000000      3.208632000000      0.023996000000
H    -3.196157000000      3.064783000000     -1.017762000000
H    -3.454172000000      2.530447000000      0.662439000000
H    -3.094238000000      4.245861000000      0.316098000000
C    -0.907529000000      3.110514000000      1.597341000000
H    -1.439875000000      2.423324000000      2.265743000000
H     0.172487000000      2.917824000000      1.675694000000
H    -1.092571000000      4.144555000000      1.924268000000
C    -0.584053000000      3.840756000000     -0.771984000000
H     0.489117000000      3.606754000000     -0.706455000000
H    -0.908659000000      3.701627000000     -1.813503000000
H    -0.728116000000      4.895435000000     -0.496946000000

