%chk=boc_o_b.chk
%nprocshared=20
%mem=46GB
#p opt PBE1PBE/DEF2SVP empiricaldispersion=gd3bj scrf=(SMD, solvent=Benzene) freq=noraman

Name

-1 1
C     0.946165000000     -0.421340000000      0.191246000000
O     0.697817000000      0.242539000000      1.157844000000
O     0.064448000000     -1.297728000000     -0.371400000000
C    -1.278760000000     -1.152890000000     -0.135995000000
O    -1.947092000000     -2.101769000000      0.152241000000
O     2.058199000000     -0.509941000000     -0.490861000000
O    -1.639521000000      0.084049000000     -0.351537000000
C    -3.004099000000      0.558103000000     -0.073555000000
C    -2.907610000000      2.041895000000     -0.380610000000
H    -2.159010000000      2.521030000000      0.266682000000
H    -2.619220000000      2.201324000000     -1.429610000000
H    -3.880626000000      2.522414000000     -0.208303000000
C    -3.324023000000      0.320370000000      1.393726000000
H    -3.398061000000     -0.750780000000      1.620939000000
H    -2.547325000000      0.769101000000      2.030118000000
H    -4.286044000000      0.794063000000      1.635364000000
C    -3.979038000000     -0.138348000000     -1.008742000000
H    -3.682372000000      0.015250000000     -2.056728000000
H    -4.027703000000     -1.215189000000     -0.803645000000
H    -4.981900000000      0.290252000000     -0.869508000000
C     3.259676000000      0.243585000000     -0.100941000000
C     2.970005000000      1.733844000000     -0.188852000000
H     2.601341000000      1.994205000000     -1.192030000000
H     2.227444000000      2.042396000000      0.557636000000
H     3.899240000000      2.293125000000     -0.009088000000
C     3.699012000000     -0.186783000000      1.289804000000
H     2.965711000000      0.106683000000      2.051437000000
H     3.840684000000     -1.277013000000      1.327332000000
H     4.659534000000      0.291862000000      1.528381000000
C     4.273025000000     -0.179410000000     -1.149911000000
H     4.439117000000     -1.265654000000     -1.111734000000
H     3.921566000000      0.087981000000     -2.156858000000
H     5.230709000000      0.327591000000     -0.967711000000

