%chk=int_3_b.chk
%nprocshared=20
%mem=46GB
#p opt PBE1PBE/DEF2SVP empiricaldispersion=gd3bj scrf=(SMD, solvent=Benzene) freq=noraman

Name

+1 1
N     0.507080172222     -1.535234799990     -1.243232249696
C    -0.864513455562     -2.081388467430     -2.046148882121
C    -0.131021981306     -1.286054350742      0.090751842779
H    -0.516866160474     -2.424924881126     -3.033391229412
H    -1.348958853472     -2.935744652455     -1.549732539713
C    -1.860997422018     -0.925488332622     -2.203691006167
H     0.760743492688     -1.038221229589      0.688196202371
H    -0.622014176241     -2.146792883999      0.568558932280
C    -1.089222016916     -0.084192488813      0.051215311465
C    -1.129136201034      0.249023213037     -2.849770374884
C    -2.327641881052     -0.489313333313     -0.788190109137
C    -0.357813213708      1.060618849237     -0.650955035021
H    -0.766415081890     -0.005013539687     -3.856312823705
H    -1.768944352965      1.137907488110     -2.923961996094
N     0.077956048040      0.628191610263     -2.027216554800
H    -2.763527486339     -1.373082646564     -0.297406390480
H     0.547271532611      1.351255054479     -0.098375391421
H    -0.975684693026      1.959841617467     -0.773291451618
N    -3.336281396496      0.532792236687     -0.816324954706
H    -3.022427048729      1.493538240192     -0.850335540427
C    -3.029839284601     -1.324341840372     -3.088467781620
H    -3.758236446819     -0.504932452110     -3.168520833031
H    -2.684272081140     -1.585631198558     -4.100072512612
H    -3.543896177135     -2.202329302112     -2.670238269989
C    -1.472979602329      0.345576869912      1.458098114338
H    -2.133831727134      1.223626793359      1.449263481129
H    -2.003847404221     -0.471795355874      1.968473332510
H    -0.578371968633      0.594226770634      2.048518774808
C     1.665358886856     -1.330877770407     -1.556254032903
H     2.238732797142     -0.949940366691     -0.855490667600
H     1.984218129757     -1.555763790872     -2.497893018678
C     0.829789568183      1.740353051115     -2.705621469496
O     1.959175427177      1.575832681468     -3.048360492154
O     0.040421648433      2.756173656862     -2.800763943099
C     0.451749039415      4.041153304689     -3.439842609986
C     1.611066452833      4.619145379982     -2.649755917057
H     1.339587862655      4.732528664166     -1.590294869939
H     2.508714101551      3.992523401678     -2.729150224735
H     1.849281932162      5.614337415326     -3.050969621144
C     0.795339417955      3.763169110194     -4.891460354255
H     1.689191875354      3.132877807474     -4.983708979930
H    -0.047486424341      3.275353114337     -5.402051382813
H     0.994772274876      4.719157294300     -5.395770724443
C    -0.800558290690      4.883754769743     -3.306300434024
H    -1.643727052074      4.412428584844     -3.830930612808
H    -1.068615418690      5.016604325171     -2.248570112015
H    -0.622900603947      5.873484800960     -3.748693930557
C    -4.767036660033      0.195975178973     -0.796484453344
H    -4.917188001295     -0.780504567426     -1.279249539995
H    -5.096452599687      0.070782336778      0.245116305231
C    -5.658480750121      1.244810690220     -1.487043288341
C    -6.199799097918      2.321396951049     -0.764362280250
C    -5.953624726014      1.152370713674     -2.857691403048
C    -7.006677155534      3.270853796353     -1.389104982224
C    -6.760436628330      2.101513402474     -3.482996652668
C    -7.290870185704      3.165411238544     -2.751576823791
H    -5.985052631275      2.412872651843      0.295817212217
H    -5.546203794812      0.328879098416     -3.435907754803
H    -7.414118046802      4.094692470331     -0.810063674429
H    -6.975021893200      2.009524463926     -4.543891688024
H    -7.919512126488      3.905044827106     -3.238555481326

