%chk=int_2_w.chk
%nprocshared=20
%mem=46GB
#p opt PBE1PBE/DEF2SVP empiricaldispersion=gd3bj scrf=(SMD, solvent=Water) freq=noraman

Name

+1 1
N     0.489819000000     -3.114237000000      0.040921000000
C    -0.308346000000     -2.805041000000     -1.136514000000
C    -0.240039000000     -2.793112000000      1.257667000000
H     0.237187000000     -3.122788000000     -2.039262000000
H    -1.245578000000     -3.380368000000     -1.096066000000
C    -0.611405000000     -1.302254000000     -1.197271000000
H     0.356913000000     -3.100749000000      2.130945000000
H    -1.177782000000     -3.367997000000      1.277392000000
C    -0.540354000000     -1.286830000000      1.329136000000
C     0.716989000000     -0.548682000000     -1.201194000000
C    -1.389624000000     -0.910689000000      0.088303000000
C     0.798296000000     -0.550291000000      1.264937000000
H     1.318149000000     -0.793729000000     -2.088768000000
H     0.569767000000      0.538648000000     -1.169362000000
N     1.536804000000     -0.929495000000      0.007243000000
H    -2.296110000000     -1.534071000000      0.128192000000
H     1.441132000000     -0.820820000000      2.114977000000
H     0.692531000000      0.542477000000      1.262743000000
N    -1.796936000000      0.466551000000      0.100630000000
H    -1.137919000000      1.142047000000      0.464080000000
C    -1.382548000000     -0.947694000000     -2.457323000000
H    -1.628200000000      0.123580000000     -2.478054000000
H    -0.796423000000     -1.189922000000     -3.356665000000
H    -2.322406000000     -1.517399000000     -2.503535000000
C    -1.249138000000     -0.939689000000      2.628524000000
H    -1.444148000000      0.138782000000      2.710051000000
H    -2.215674000000     -1.462711000000      2.680070000000
H    -0.646708000000     -1.246955000000      3.496517000000
C     1.737785000000     -2.463760000000      0.001484000000
H     2.296435000000     -2.690479000000     -0.914059000000
H     2.354411000000     -2.690556000000      0.879388000000
C     2.869917000000     -0.234534000000     -0.039968000000
O     3.875377000000     -0.872887000000     -0.080031000000
O     2.657692000000      1.037825000000     -0.029555000000
C     3.762035000000      2.040966000000     -0.083584000000
C     4.634082000000      1.859505000000      1.144803000000
H     4.031509000000      1.931218000000      2.061742000000
H     5.159715000000      0.896054000000      1.130591000000
H     5.385511000000      2.661427000000      1.164848000000
C     4.515604000000      1.850773000000     -1.386843000000
H     5.041778000000      0.887912000000     -1.414928000000
H     3.829361000000      1.914928000000     -2.243568000000
H     5.260601000000      2.653048000000     -1.483539000000
C     3.007111000000      3.354453000000     -0.053153000000
H     2.332723000000      3.435075000000     -0.917456000000
H     2.415770000000      3.441542000000      0.869359000000
H     3.722749000000      4.187154000000     -0.089362000000
C    -3.118381497562      0.877637681255     -0.395040795456
H    -3.442248684160      0.184063509583     -1.184461572440
H    -3.856667229676      0.779116137268      0.413876958353
C    -3.153459131125      2.317493905805     -0.940186291858
C    -3.454465483933      3.401595661101     -0.098491614522
C    -2.885366922015      2.584442089319     -2.293403423309
C    -3.486290676048      4.704917606454     -0.591607228282
C    -2.917039178285      3.887544438138     -2.787108883385
C    -3.217692389375      4.954121503482     -1.938442670554
H    -3.664934118493      3.218917493647      0.950696665064
H    -2.650416482887      1.762198455777     -2.962117191129
H    -3.721447738566      5.527347848707      0.077957353614
H    -2.706358362583      4.069807863953     -3.837061603398
H    -3.242428962185      5.969500955223     -2.322876564590

