%chk=int_1_w.chk
%nprocshared=20
%mem=46GB
#p opt PBE1PBE/DEF2SVP empiricaldispersion=gd3bj scrf=(SMD, solvent=Water) freq=noraman

Name

0 1
N     0.324873766828     -2.759234815841      0.698817909346
C     1.234277766828     -2.283962815841      1.730776909346
C     1.031879766828     -2.868236815841     -0.568432090654
H     0.701439766828     -2.256330815841      2.696028909346
H     2.067629766828     -2.998509815841      1.834997909346
C     1.775006766828     -0.885225815841      1.396469909346
H     0.346625766828     -3.278994815841     -1.328715090654
H     1.865938766828     -3.580358815841     -0.457067090654
C     1.563314766828     -1.502637815841     -1.042645090654
C     0.568049766828      0.036337184159      1.194900909346
C     2.532615766828     -0.975837815841      0.044654909346
C     0.350691766828     -0.563166815841     -1.126750090654
H    -0.011710233172      0.142365184159      2.124508909346
H     0.887571766828      1.041206184159      0.882351909346
N    -0.332980233172     -0.496665815841      0.168420909346
H     3.334239766828     -1.724576815841      0.152710909346
H    -0.368875233172     -0.930056815841     -1.873118090654
H     0.624475766828      0.462128184159     -1.420050090654
N     3.140552766828      0.269546184159     -0.343259090654
H     2.556224766828      0.929221184159     -0.838776090654
C     2.660355766828     -0.362131815841      2.512553909346
H     3.070323766828      0.626800184159      2.259587909346
H     2.088626766828     -0.268056815841      3.449069909346
H     3.503753766828     -1.044724815841      2.699471909346
C     2.244374766828     -1.632002815841     -2.393691090654
H     2.603879766828     -0.659329815841     -2.759854090654
H     3.110821766828     -2.308552815841     -2.327652090654
H     1.548035766828     -2.041387815841     -3.141933090654
C    -0.781841233172     -1.849782815841      0.561003909346
H    -1.323349233172     -1.747659815841      1.512046909346
H    -1.479631233172     -2.207790815841     -0.209021090654
C    -1.539609766828      0.394342815841      0.156223090654
O    -2.280467723252     -0.028482064556     -0.711976504947
O    -1.154889764935      1.765876290063     -0.037393106695
C     0.033479536525      2.032190610699     -0.609170385122
O     0.994959715309      1.329087275906     -0.426547396330
O    -1.766243938156      0.342911907302      1.489421401564
O    -0.013044090811      3.156484342805     -1.289651545009
C     1.104804158427      3.612795720968     -2.114877945103
C     0.551105543982      4.867642271547     -2.769259733855
H    -0.327447505925      4.627539267239     -3.385430370735
H     0.253063348555      5.600781971434     -2.005645148694
H     1.316186424714      5.324239473464     -3.412665380974
C     1.428378676679      2.554519794705     -3.159277239886
H     1.838910335774      1.648156663949     -2.696625201533
H     0.520821622278      2.288394329385     -3.720326133142
H     2.170414522718      2.953618214193     -3.865534504861
C     2.295936955542      3.941966758979     -1.227656929012
H     2.010395195944      4.678019513698     -0.461393054584
H     2.680712787978      3.041560355129     -0.732990984013
H     3.098102855910      4.378152339046     -1.840428281688
C    -3.119365872381      0.257136999454      2.014881910883
C    -3.953948936474      1.411998681747      1.476501504122
H    -3.472993412920      2.373396396001      1.709371324347
H    -4.070494787330      1.338224089745      0.387791774920
H    -4.950700469752      1.400214648451      1.941350557617
C    -3.749657754016     -1.090950335169      1.688593548804
H    -3.852186315317     -1.220060310936      0.604526160818
H    -3.137147319566     -1.912349297993      2.088390873116
H    -4.745056732956     -1.152434695819      2.153096660630
C    -2.909675074275      0.396194019897      3.514633477639
H    -2.264300730523     -0.412923939983      3.888217361351
H    -2.433318014139      1.359225283337      3.749457876146
H    -3.873857696561      0.343674692898      4.040315352568
C     4.546045945845      0.568647151800     -0.033375991902
H     4.763140495886      0.263280790997      1.000423597637
H     5.197530631462     -0.045369941398     -0.671867153131
C     4.915767214921      2.052981969545     -0.211298255888
C     5.387488397886      2.537447904288     -1.443005710495
C     4.790963932120      2.961301252169      0.853460679992
C     5.722202829472      3.880860621093     -1.604351507589
C     5.125518057602      4.304827872565      0.692732020332
C     5.592791271122      4.771057620385     -0.537104918710
H     5.491910555006      1.853595829833     -2.279610012650
H     4.428501453161      2.609188490069      1.814242631910
H     6.084855512587      4.232699834439     -2.565964359072
H     5.020847117147      4.988718315595      1.530195412316
H     5.853516872116      5.817803154936     -0.662574814785

