%chk=pr_w_noboc.chk
%nprocshared=20
%mem=20Gb
#p opt PBE1PBE/DEF2SVP empiricaldispersion=gd3bj scrf=(SMD, solvent=Water) freq=noraman pop=SaveNBOs

Vatsadze, way 1

0, 1
N     1.862097000000      0.348867000000     -0.836450000000
C     1.325957000000      1.634717000000     -1.210248000000
C     0.895730000000     -0.715549000000     -0.706798000000
H     2.105448000000      2.386873000000     -1.029908000000
H     1.106518000000      1.644149000000     -2.295884000000
C     0.034043000000      2.010081000000     -0.473255000000
H     1.386241000000     -1.583856000000     -0.253158000000
H     0.527539000000     -1.021880000000     -1.704825000000
C    -0.287581000000     -0.262295000000      0.165608000000
C     0.166348000000      1.972417000000      1.078494000000
C    -1.018704000000      0.883473000000     -0.602861000000
C     0.290529000000      0.472620000000      1.401229000000
H     1.027182000000      2.559156000000      1.438127000000
H    -1.178363000000      3.456039000000      1.437853000000
N    -1.046307000000      2.485436000000      1.709778000000
H    -1.204843000000      0.597321000000     -1.651641000000
H     1.335546000000      0.184950000000      1.581786000000
H    -0.264048000000      0.237761000000      2.320812000000
N    -2.264100000000      1.352141000000     -0.037759000000
C    -0.415939000000      3.353166000000     -1.023990000000
H    -1.427644000000      3.612283000000     -0.685901000000
H     0.275351000000      4.157826000000     -0.723473000000
H    -0.438809000000      3.334954000000     -2.125642000000
C    -1.142296000000     -1.467313000000      0.505856000000
H    -2.037595000000     -1.185001000000      1.075645000000
H    -1.485048000000     -1.990567000000     -0.399851000000
H    -0.567174000000     -2.186691000000      1.111364000000
C    -2.224156000000      1.719424000000      1.360120000000
H    -2.269699000000      0.829585000000      2.021840000000
H    -3.119691000000      2.319888000000      1.589271000000
C    -3.524942000000      1.076331000000     -0.670900000000
H    -4.243151000000      1.845015000000     -0.331969000000
H    -3.405199000000      1.220723000000     -1.758176000000
C    -4.135833000000     -0.290503000000     -0.432319000000
C    -4.735783000000     -0.603426000000      0.794065000000
C    -4.075539000000     -1.283059000000     -1.415135000000
C    -5.236078000000     -1.880079000000      1.040170000000
C    -4.579438000000     -2.561457000000     -1.176781000000
C    -5.154472000000     -2.865858000000      0.055800000000
H    -4.812499000000      0.165214000000      1.568509000000
H    -3.621735000000     -1.050387000000     -2.383431000000
H    -5.698109000000     -2.107367000000      2.004471000000
H    -4.522287000000     -3.324328000000     -1.957723000000
H    -5.547604000000     -3.867458000000      0.247181000000
H     2.838767280992      0.204349559882     -0.677610862102

