%chk=pr_b.chk
%nprocshared=20
%mem=20Gb
#p opt PBE1PBE/DEF2SVP empiricaldispersion=gd3bj scrf=(SMD, solvent=Benzene) freq=noraman pop=SaveNBOs

Vatsadze, way 1

0, 1
N     0.348179274342     -1.815711093245     -2.084477796889
C    -0.008829725658     -0.905169093245     -1.076352796889
C     0.587098274342     -3.155133093245     -1.730935796889
H     0.494355274342      0.046531906755     -1.304637796889
H    -1.084176725658     -0.693305093245     -1.218733796889
C     0.216147274342     -1.275480093245      0.402528203111
H     1.328657274342     -3.550952093245     -2.438489796889
H    -0.334592725658     -3.734921093245     -1.918371796889
C     1.050170274342     -3.382376093245     -0.278779796889
C     1.722742274342     -1.277140093245      0.758496203111
C    -0.052726725658     -2.771752093245      0.623043203111
C     2.272904274342     -2.470018093245     -0.037588796889
H     2.222105274342     -0.337300093245      0.505874203111
H     1.531403274342     -0.740039093245      2.703767203111
N     1.919410274342     -1.514514093245      2.177897203111
H    -1.040172725658     -3.084427093245      0.283457203111
H     2.687509274342     -2.129929093245     -0.986649796889
H     3.066574274342     -2.965223093245      0.518379203111
N     0.078711274342     -3.086016093245      2.029220203111
C    -0.629165725658     -0.362643093245      1.285906203111
H    -0.622109725658     -0.698812093245      2.320671203111
H    -0.258429725658      0.660360906755      1.240629203111
H    -1.664612725658     -0.366909093245      0.949494203111
C     1.299020274342     -4.865855093245     -0.046968796889
H     1.631318274342     -5.064301093245      0.968261203111
H     0.384162274342     -5.431642093245     -0.215546796889
H     2.061177274342     -5.228571093245     -0.734389796889
C     1.368158274342     -2.772345093245      2.626198203111
H     2.113513274342     -3.554844093245      2.411459203111
H     1.241146274342     -2.721354093245      3.711214203111
C    -1.018535725658     -3.683099093245      2.804102203111
H    -0.967346725658     -3.324414093245      3.842295203111
H    -1.979816725658     -3.324414093245      2.408621203111
C    -1.011832725658     -5.223077093245      2.799369203111
C    -0.313503725658     -5.945575093245      3.781541203111
C    -1.703873725658     -5.945575093245      1.812754203111
C    -0.307250725658     -7.339407093245      3.777522203111
C    -1.697993725658     -7.339407093245      1.808205203111
C    -0.999559725658     -8.043045093245      2.790701203111
H     0.228261274342     -5.408175093245      4.553653203111
H    -2.250315725658     -5.408175093245      1.043946203111
H     0.239703274342     -7.876686093245      4.547055203111
H    -2.240270725658     -7.876686093245      1.035370203111
H    -0.994832725658     -9.129030093245      2.787363203111
C     0.756804264034     -2.212591845453     -3.472105732009
O     0.662988153067     -1.178869572167     -4.071555936947
O     1.735001378331     -2.731130191247     -4.167798266982
C     2.587501252247     -1.899658050844     -5.031096630961
C     1.737471944248     -1.274115632282     -6.125928297047
H     1.189501709504     -2.052248449310     -6.677566797940
H     1.019896679871     -0.553697300330     -5.713704236138
H     2.392543078417     -0.747952201813     -6.834886597277
C     3.308229098721     -0.862401141732     -4.184306298648
H     2.606615235149     -0.135329245333     -3.756472311875
H     3.862809343019     -1.350465772161     -3.369251436526
H     4.029512749166     -0.321708174251     -4.813610314152
C     3.564183438559     -2.909912589107     -5.606958334284
H     4.139666164132     -3.392933324895     -4.804162803318
H     3.028848350069     -3.686075338683     -6.172600770316
H     4.265755186823     -2.404363037236     -6.284912780004

